(set-logic HORN)
(declare-fun state (Int (Array Int Int) (Array Int Int) (Array Int Int) (Array Int Int) Int Int (Array Int Int) (Array Int Int) Int Int Int Int Int Int Int Int Int Int Int Int Int Int Int Int Int Int Int Int Int Int Int Int Int Int Int Int Int Bool Bool Bool Bool Bool (Array Int Int)) Bool)
(assert (forall ((|A_28| Int) (|B_28| (Array Int Int)) (|C_28| (Array Int Int)) (|D_28| (Array Int Int)) (|E_28| (Array Int Int)) (|F_28| Int) (|G_28| Int) (|H_28| (Array Int Int)) (|I_28| (Array Int Int)) (|J_28| Int) (|K_28| Int) (|L_28| Int) (|M_28| Int) (|N_28| Int) (|O_28| Int) (|P_28| Int) (|Q_28| Int) (|R_28| Int) (|S_28| Int) (|T_28| Int) (|U_28| Int) (|V_28| Int) (|W_28| Int) (|X_28| Int) (|Y_28| Int) (|Z_28| Int) (|A1_28| Int) (|B1_28| Int) (|C1_28| Int) (|D1_28| Int) (|E1_28| Int) (|F1_28| Int) (|G1_28| Int) (|H1_28| Int) (|I1_28| Int) (|J1_28| Int) (|K1_28| Int) (|L1_28| Int) (|N1_16| Bool) (|.loc.5| Bool) (|.loc.6| Bool) (|.loc.7| Bool) (|.loc.8| Bool) (|N1_0| (Array Int Int)) (|.x.1077| Int) (|.x.1075| (Array Int Int)) (|.x.1073| Int) (|.x.1071| (Array Int Int)) (|.x.1067| Int) (|.x.1069| (Array Int Int)) (|.x.1068| (Array Int Int)) (|M1_28| Bool) (|.x.1079| Int) (|.x.1080| Int) (|.x.1088| Int) (|.x.1089| Int) (|.x.1090| Int) (|.x.1091| Int) (|.x.1094| Int) (|.x.1096| Int) (|.x.1098| Int) (|.x.1101| Int) (|.loc.10| Bool) (|.x.1092| Int) (|.x.1082| Int) (|.x.1093| Int) (|.x.1102| Int) (|.loc.11| Bool) (|.loc.9| Bool) (|.x.1100| Int) (|.x.1097| Int) (|.x.1086| Int) (|.x.1070| (Array Int Int)) (|.x.1095| Int) (|.x.1099| Int) (|.loc.12| Bool) (|.x.1103| Int) (|.x.1087| Int) (|.x.1104| Int) (|.x.1084| Int) (|.x.1085| Int) (|.x.1083| Int) (|.x.1078| Int) (|.x.1081| Int) (|.x.1076| Int) (|.x.1072| Int) (|.x.1074| (Array Int Int)) (|.xtv.1| (Array Int Int))) (=> (and (and (and (and .loc.5 (not .loc.6)) (not .loc.7)) (not .loc.8)) (and (and (and (and (and (= D_28 E_28) (not N1_16)) (= F_28 G_28)) (= J_28 K_28)) (= H_28 I_28)) (= B_28 C_28))) (state |A_28| |B_28| |C_28| |D_28| |E_28| |F_28| |G_28| |H_28| |I_28| |J_28| |K_28| |L_28| |M_28| |N_28| |O_28| |P_28| |Q_28| |R_28| |S_28| |T_28| |U_28| |V_28| |W_28| |X_28| |Y_28| |Z_28| |A1_28| |B1_28| |C1_28| |D1_28| |E1_28| |F1_28| |G1_28| |H1_28| |I1_28| |J1_28| |K1_28| |L1_28| |N1_16| |.loc.5| |.loc.6| |.loc.7| |.loc.8| |N1_0|))))
(assert (forall ((|A_28| Int) (|B_28| (Array Int Int)) (|C_28| (Array Int Int)) (|D_28| (Array Int Int)) (|E_28| (Array Int Int)) (|F_28| Int) (|G_28| Int) (|H_28| (Array Int Int)) (|I_28| (Array Int Int)) (|J_28| Int) (|K_28| Int) (|L_28| Int) (|M_28| Int) (|N_28| Int) (|O_28| Int) (|P_28| Int) (|Q_28| Int) (|R_28| Int) (|S_28| Int) (|T_28| Int) (|U_28| Int) (|V_28| Int) (|W_28| Int) (|X_28| Int) (|Y_28| Int) (|Z_28| Int) (|A1_28| Int) (|B1_28| Int) (|C1_28| Int) (|D1_28| Int) (|E1_28| Int) (|F1_28| Int) (|G1_28| Int) (|H1_28| Int) (|I1_28| Int) (|J1_28| Int) (|K1_28| Int) (|L1_28| Int) (|N1_16| Bool) (|.loc.5| Bool) (|.loc.6| Bool) (|.loc.7| Bool) (|.loc.8| Bool) (|N1_0| (Array Int Int)) (|.x.1077| Int) (|.x.1075| (Array Int Int)) (|.x.1073| Int) (|.x.1071| (Array Int Int)) (|.x.1067| Int) (|.x.1069| (Array Int Int)) (|.x.1068| (Array Int Int)) (|M1_28| Bool) (|.x.1079| Int) (|.x.1080| Int) (|.x.1088| Int) (|.x.1089| Int) (|.x.1090| Int) (|.x.1091| Int) (|.x.1094| Int) (|.x.1096| Int) (|.x.1098| Int) (|.x.1101| Int) (|.loc.10| Bool) (|.x.1092| Int) (|.x.1082| Int) (|.x.1093| Int) (|.x.1102| Int) (|.loc.11| Bool) (|.loc.9| Bool) (|.x.1100| Int) (|.x.1097| Int) (|.x.1086| Int) (|.x.1070| (Array Int Int)) (|.x.1095| Int) (|.x.1099| Int) (|.loc.12| Bool) (|.x.1103| Int) (|.x.1087| Int) (|.x.1104| Int) (|.x.1084| Int) (|.x.1085| Int) (|.x.1083| Int) (|.x.1078| Int) (|.x.1081| Int) (|.x.1076| Int) (|.x.1072| Int) (|.x.1074| (Array Int Int)) (|.xtv.1| (Array Int Int))) (=> (and (state |A_28| |B_28| |C_28| |D_28| |E_28| |F_28| |G_28| |H_28| |I_28| |J_28| |K_28| |L_28| |M_28| |N_28| |O_28| |P_28| |Q_28| |R_28| |S_28| |T_28| |U_28| |V_28| |W_28| |X_28| |Y_28| |Z_28| |A1_28| |B1_28| |C1_28| |D1_28| |E1_28| |F1_28| |G1_28| |H1_28| |I1_28| |J1_28| |K1_28| |L1_28| |N1_16| |.loc.5| |.loc.6| |.loc.7| |.loc.8| |N1_0|) (let ((.def_54 (not .loc.6))) (let ((.def_56 (not .loc.7))) (let ((.def_58 (not .loc.8))) (let ((.def_90 (= B_28 .x.1068))) (let ((.def_94 (= M_28 .x.1079))) (let ((.def_97 (= N_28 .x.1080))) (let ((.def_100 (= V_28 .x.1088))) (let ((.def_103 (= W_28 .x.1089))) (let ((.def_106 (= X_28 .x.1090))) (let ((.def_109 (= Y_28 .x.1091))) (let ((.def_112 (= B1_28 .x.1094))) (let ((.def_115 (= D1_28 .x.1096))) (let ((.def_118 (= F1_28 .x.1098))) (let ((.def_121 (= I1_28 .x.1101))) (let ((.def_123 (not .loc.5))) (let ((.def_137 (= N1_16 M1_28))) (let ((.def_145 (= P_28 0))) (let ((.def_148 (and .def_97 (and .def_90 .def_94)))) (let ((.def_156 (and .def_121 (and .def_118 (and .def_115 (and .def_112 (and .def_109 (and .def_106 (and .def_103 (and .def_100 .def_148)))))))))) (let ((.def_160 (not .loc.10))) (let ((.def_166 (= Z_28 .x.1092))) (let ((.def_168 (= P_28 .x.1082))) (let ((.def_171 (= A1_28 .x.1093))) (let ((.def_174 (= J1_28 .x.1102))) (let ((.def_179 (not .loc.9))) (let ((.def_185 (select D_28 X_28))) (let ((.def_189 (select D_28 D1_28))) (let ((.def_195 (<= 100000 E1_28))) (let ((.def_212 (not .loc.11))) (let ((.def_217 (= H1_28 .x.1100))) (let ((.def_219 (= E1_28 .x.1097))) (let ((.def_228 (and .def_148 .def_168))) (let ((.def_232 (and .def_109 (and .def_106 (and .def_103 (and .def_100 .def_228)))))) (let ((.def_253 (and .def_115 (and .def_112 (and .def_171 (and .def_166 .def_232)))))) (let ((.def_268 (and N1_16 .def_90))) (let ((.def_284 (and .def_174 (and .def_121 (and .def_217 (and .def_118 (and .def_219 (and .def_115 (and .def_112 (and .def_171 (and .def_166 (and .def_109 (and .def_106 (and .def_103 (and .def_100 (and .def_168 (and .def_97 (and .def_94 .def_268)))))))))))))))))) (let ((.def_299 (and .def_174 (and .def_121 (and .def_217 (and .def_118 (and .def_219 .def_253))))))) (let ((.def_321 (and .def_54 (and .def_123 (and .loc.8 .def_299))))) (let ((.def_327 (<= 100000 C1_28))) (let ((.def_328 (or N1_16 .def_327))) (let ((.def_332 (= T_28 .x.1086))) (let ((.def_334 (= D_28 .x.1070))) (let ((.def_337 (= C1_28 .x.1095))) (let ((.def_340 (= G1_28 .x.1099))) (let ((.def_343 (* 4 C1_28))) (let ((.def_351 (not .def_327))) (let ((.def_362 (or M1_28 (= (+ C1_28 (* (- 1) .x.1095)) (- 1))))) (let ((.def_373 (and .def_168 (and .def_97 (and .def_94 (and .def_90 .def_334)))))) (let ((.def_374 (and .def_332 .def_373))) (let ((.def_381 (and .def_112 (and .def_171 (and .def_166 (and .def_109 (and .def_106 (and .def_103 (and .def_100 .def_374))))))))) (let ((.def_389 (and .def_174 (and .def_121 (and .def_217 (and .def_340 (and .def_118 (and .def_219 (and .def_115 (and .def_337 .def_381)))))))))) (let ((.def_398 (not .loc.12))) (let ((.def_405 (and .def_168 (and .def_97 (and .def_94 (and .def_268 .def_334)))))) (let ((.def_406 (and .def_332 .def_405))) (let ((.def_421 (and .def_174 (and .def_121 (and .def_217 (and .def_340 (and .def_118 (and .def_219 (and .def_115 (and .def_337 (and .def_112 (and .def_171 (and .def_166 (and .def_109 (and .def_106 (and .def_103 (and .def_100 .def_406))))))))))))))))) (let ((.def_449 (or N1_16 (= .x.1095 0)))) (let ((.def_474 (= K1_28 .x.1103))) (let ((.def_476 (= U_28 .x.1087))) (let ((.def_480 (select D_28 W_28))) (let ((.def_487 (and .def_228 .def_332))) (let ((.def_521 (and .def_112 (and .def_171 (and .def_166 (and .def_109 (and .def_106 (and .def_103 (and .def_100 (and .def_374 .def_476)))))))))) (let ((.def_589 (= L1_28 .x.1104))) (let ((.def_591 (= R_28 .x.1084))) (let ((.def_639 (and .def_112 (and .def_171 (and .def_166 (and .def_109 (and .def_106 (and .def_103 (and .def_100 (and .def_476 (and .def_332 (and .def_373 .def_591)))))))))))) (let ((.def_690 (<= 100000 O_28))) (let ((.def_730 (store D_28 D1_28 (store .def_189 (+ (* 4 O_28) F1_28) L_28)))) (let ((.def_835 (store N1_0 .x.1096 1))) (let ((.def_839 (store .def_835 .x.1089 1))) (let ((.def_843 (store .def_839 .x.1080 1))) (and (and (= K_28 .x.1077) (and (= I_28 .x.1075) (and (= G_28 .x.1073) (and (= E_28 .x.1071) (and (= A_28 .x.1067) (= C_28 .x.1069)))))) (or (and (or (and (or (or (or (or (and (or (or (or (or (and (or (or (or (or (or (and (or (and (or (or (or (or (or (or (and (or (and (or (and (or (and (and (and (and (and (and (and (and (and (and (and (and .def_90 M1_28) .def_94) .def_97) .def_100) .def_103) .def_106) .def_109) .def_112) .def_115) .def_118) .def_121) .def_123) (and (or N1_16 (and (= .x.1101 0) (= .x.1068 (store (store (store (store B_28 D1_28 0) W_28 0) N_28 0) X_28 0)))) (and (and .loc.5 (or M1_28 (= .x.1091 .x.1101))) .def_137))) (and (and .loc.7 .def_54) .loc.10)) (and (or N1_16 .def_145) (and .def_56 (and (and .def_137 (and .loc.6 (and .loc.5 .def_156))) .def_160)))) (and (and (and (and (and .def_166 .def_168) .def_171) .def_174) .loc.11) .def_179)) (and (or N1_16 (and (= .x.1093 (select .def_185 (+ B1_28 (* 4 E1_28)))) (and (= .x.1092 (select .def_189 (+ (* 4 E1_28) F1_28))) (and (= .x.1082 .x.1102) (and (not .def_195) (= .x.1102 (ite (= .x.1092 .x.1093) 1 0))))))) (and (and .def_56 (and .def_137 (and .loc.10 (and .loc.9 (and .def_123 (and .loc.6 .def_156)))))) .def_212))) (and .loc.8 (and .def_217 .def_219))) (and (or M1_28 (= (+ E1_28 (* (- 1) .x.1097)) (- 1))) (and .def_58 (and .def_212 (and .def_56 (and .def_137 (and .def_179 (and .loc.10 (and .def_54 (and .def_123 (and .def_174 (and .def_121 (and .def_118 (and .def_115 (and .def_112 .def_232))))))))))))))) (and (or N1_16 (= .x.1097 0)) (and .def_212 (and .def_56 (and .def_137 (and .def_179 (and .loc.10 (and .def_54 (and .loc.8 (and .loc.5 (and .def_174 (and .def_121 (and .def_217 (and .def_118 .def_253)))))))))))))) (and .def_56 (and .def_160 (and .def_137 (and .loc.11 (and .loc.9 (and .def_123 (and .loc.8 (and .loc.6 .def_284))))))))) (and (or N1_16 .def_195) (and .def_56 (and .def_160 (and .def_137 (and .loc.11 (and .loc.9 (and .def_123 (and .loc.8 (and .loc.6 .def_299)))))))))) (and .def_212 (and .def_56 (and .def_160 (and .def_137 (and .loc.9 (and .def_54 (and .def_123 (and .loc.8 .def_284))))))))) (and (and .def_212 (and .def_56 (and .def_160 (and .def_137 (and .loc.9 .def_321))))) .def_328)) (and (and (and .def_332 .def_334) .def_337) .def_340)) (and (or N1_16 (and (= .x.1070 (store D_28 X_28 (store .def_185 (+ B1_28 .def_343) (select (select D_28 N_28) (+ V_28 .def_343))))) .def_351)) (and (and .def_212 (and .def_56 (and .def_160 (and .def_137 (and .def_179 .def_321))))) .def_362))) .loc.12) (and (or N1_16 (not .def_145)) (and (and .def_212 (and .def_56 (and .def_160 (and .def_137 (and .def_179 (and .loc.8 (and .loc.6 (and .loc.5 .def_389)))))))) .def_398))) (and .def_398 (and .def_212 (and .def_160 (and .def_137 (and .def_179 (and .def_54 (and .def_123 (and .loc.8 (and .loc.7 .def_421)))))))))) (and (and .def_58 (and .def_212 (and .def_160 (and .def_137 (and .def_179 (and .loc.12 (and .loc.7 (and .loc.6 (and .loc.5 (and .def_174 (and .def_121 (and .def_217 (and .def_340 (and .def_118 (and .def_219 (and .def_115 .def_381)))))))))))))))) .def_449)) (and .def_398 (and .def_58 (and .def_137 (and .loc.11 (and .loc.10 (and .loc.9 (and .def_123 (and .loc.7 (and .loc.6 .def_421)))))))))) (and .def_398 (and .def_328 (and .def_58 (and .def_137 (and .loc.11 (and .loc.10 (and .loc.9 (and .def_123 (and .loc.7 (and .loc.6 .def_389))))))))))) (and .def_474 .def_476)) (and (or N1_16 (and .def_351 (= .x.1070 (store D_28 X_28 (store .def_185 (+ B1_28 .def_343) (select .def_480 (+ M_28 .def_343))))))) (and .def_398 (and .def_362 (and .def_58 (and .def_137 (and .def_179 (and .loc.11 (and .loc.10 (and .def_123 (and .loc.7 (and .loc.6 (and .def_174 (and .def_121 (and .def_217 (and .def_340 (and .def_118 (and .def_219 (and .def_115 (and .def_112 (and .def_171 (and .def_166 (and .def_109 (and .def_106 (and .def_103 (and .def_100 .def_487)))))))))))))))))))))))))) (and .def_449 (and .def_398 (and .def_58 (and .def_137 (and .def_179 (and .loc.11 (and .loc.10 (and .def_54 (and .loc.7 (and .loc.5 (and .def_474 (and .def_174 (and .def_121 (and .def_217 (and .def_340 (and .def_118 (and .def_219 (and .def_115 .def_521))))))))))))))))))) (and .def_398 (and .def_58 (and .def_160 (and .def_137 (and .loc.11 (and .loc.9 (and .def_54 (and .def_123 (and .loc.7 (and .def_474 (and .def_174 (and .def_121 (and .def_217 (and .def_340 (and .def_118 (and .def_219 (and .def_115 (and .def_337 (and .def_112 (and .def_171 (and .def_166 (and .def_109 (and .def_106 (and .def_103 (and .def_100 (and .def_406 .def_476))))))))))))))))))))))))))) (and .def_398 (and .def_328 (and .def_58 (and .def_160 (and .def_137 (and .loc.11 (and .loc.9 (and .def_54 (and .def_123 (and .loc.7 (and .def_474 (and .def_174 (and .def_121 (and .def_217 (and .def_340 (and .def_118 (and .def_219 (and .def_115 (and .def_337 .def_521)))))))))))))))))))) (and .def_589 .def_591)) (and (or N1_16 (and .def_351 (= .x.1070 (store D_28 W_28 (store .def_480 (+ M_28 .def_343) (select .def_189 (+ .def_343 F1_28))))))) (and .def_398 (and .def_362 (and .def_58 (and .def_160 (and .def_137 (and .def_179 (and .loc.11 (and .def_54 (and .def_123 (and .loc.7 (and .def_474 (and .def_174 (and .def_121 (and .def_217 (and .def_340 (and .def_118 (and .def_219 (and .def_115 (and .def_112 (and .def_171 (and .def_166 (and .def_109 (and .def_106 (and .def_103 (and .def_100 (and .def_476 .def_487)))))))))))))))))))))))))))) (and .def_449 (and .def_398 (and .def_58 (and .def_56 (and .def_160 (and .def_137 (and .def_179 (and .loc.11 (and .loc.6 (and .loc.5 (and .def_589 (and .def_474 (and .def_174 (and .def_121 (and .def_217 (and .def_340 (and .def_118 (and .def_219 (and .def_115 .def_639)))))))))))))))))))) (and .def_398 (and .def_58 (and .def_212 (and .def_56 (and .def_137 (and .loc.10 (and .loc.9 (and .def_123 (and .loc.6 (and .def_589 (and .def_474 (and .def_174 (and .def_121 (and .def_217 (and .def_340 (and .def_118 (and .def_219 (and .def_115 (and .def_337 (and .def_112 (and .def_171 (and .def_166 (and .def_109 (and .def_106 (and .def_103 (and .def_100 (and .def_476 (and .def_332 (and .def_405 .def_591)))))))))))))))))))))))))))))) (and (or N1_16 .def_690) (and .def_398 (and .def_58 (and .def_212 (and .def_56 (and .def_137 (and .loc.10 (and .loc.9 (and .def_123 (and .loc.6 (and .def_589 (and .def_474 (and .def_174 (and .def_121 (and .def_217 (and .def_340 (and .def_118 (and .def_219 (and .def_115 (and .def_337 .def_639))))))))))))))))))))) (and (= S_28 .x.1085) (and (= Q_28 .x.1083) (and (= L_28 .x.1078) (= O_28 .x.1081))))) (and (or N1_16 (and (= .x.1070 (store .def_730 N_28 (store (select .def_730 N_28) (+ (* 4 O_28) V_28) Q_28))) (and (<= (- 2147483648) Q_28) (and (<= (- 2147483648) L_28) (and (not .def_690) (and (<= L_28 2147483647) (<= Q_28 2147483647))))))) (and (or M1_28 (= (+ O_28 (* (- 1) .x.1081)) (- 1))) (and .def_398 (and .def_58 (and .def_212 (and .def_56 (and .def_137 (and .def_179 (and .loc.10 (and .def_123 (and .loc.6 (and .def_589 (and .def_474 (and .def_174 (and .def_121 (and .def_217 (and .def_340 (and .def_118 (and .def_219 (and .def_115 (and .def_337 (and .def_112 (and .def_171 (and .def_166 (and .def_109 (and .def_106 (and .def_103 (and .def_100 (and .def_476 (and .def_332 (and .def_228 .def_591)))))))))))))))))))))))))))))))) (and (= J_28 .x.1076) (and (= F_28 .x.1072) (= H_28 .x.1074)))) (and (or N1_16 (and (and (= .x.1076 0) (= .x.1072 0)) (= N1_0 (store B_28 0 0)))) (and (or M1_28 (and (and (and (and (and (and (and (and (and (and (and (and (and (and (and (and (and (and (not (<= .x.1067 .x.1089)) (not (<= .x.1067 .x.1080))) (not (<= .x.1067 .x.1090))) (not (<= .x.1067 .x.1096))) (= .x.1079 0)) (= .x.1081 0)) (= .x.1088 0)) (not (= .x.1090 0))) (= .x.1098 0)) (= .x.1094 0)) (not (= .x.1080 0))) (not (= .x.1089 0))) (not (= .x.1096 0))) (= (select .def_835 .x.1089) 0)) (= (select .def_839 .x.1080) 0)) (= (select .def_843 .x.1090) 0)) (= (select N1_0 .x.1096) 0)) (= .x.1068 (store .def_843 .x.1090 1))) (= .x.1074 (store (store (store (store H_28 .x.1096 400000) .x.1089 400000) .x.1080 400000) .x.1090 400000)))) (and .def_398 (and .def_58 (and .def_212 (and .def_56 (and .def_137 (and .def_179 (and .loc.10 (and .def_54 (and .loc.5 (and .def_174 (and .def_109 (and .def_168 .def_334)))))))))))))))))))))))))))))))))))))))))))))))))))))))))))))))))))))))))))))))))))))) (state |.x.1067| |.x.1068| |.x.1069| |.x.1070| |.x.1071| |.x.1072| |.x.1073| |.x.1074| |.x.1075| |.x.1076| |.x.1077| |.x.1078| |.x.1079| |.x.1080| |.x.1081| |.x.1082| |.x.1083| |.x.1084| |.x.1085| |.x.1086| |.x.1087| |.x.1088| |.x.1089| |.x.1090| |.x.1091| |.x.1092| |.x.1093| |.x.1094| |.x.1095| |.x.1096| |.x.1097| |.x.1098| |.x.1099| |.x.1100| |.x.1101| |.x.1102| |.x.1103| |.x.1104| |M1_28| |.loc.9| |.loc.10| |.loc.11| |.loc.12| |.xtv.1|))))
(assert (forall ((|A_28| Int) (|B_28| (Array Int Int)) (|C_28| (Array Int Int)) (|D_28| (Array Int Int)) (|E_28| (Array Int Int)) (|F_28| Int) (|G_28| Int) (|H_28| (Array Int Int)) (|I_28| (Array Int Int)) (|J_28| Int) (|K_28| Int) (|L_28| Int) (|M_28| Int) (|N_28| Int) (|O_28| Int) (|P_28| Int) (|Q_28| Int) (|R_28| Int) (|S_28| Int) (|T_28| Int) (|U_28| Int) (|V_28| Int) (|W_28| Int) (|X_28| Int) (|Y_28| Int) (|Z_28| Int) (|A1_28| Int) (|B1_28| Int) (|C1_28| Int) (|D1_28| Int) (|E1_28| Int) (|F1_28| Int) (|G1_28| Int) (|H1_28| Int) (|I1_28| Int) (|J1_28| Int) (|K1_28| Int) (|L1_28| Int) (|N1_16| Bool) (|.loc.5| Bool) (|.loc.6| Bool) (|.loc.7| Bool) (|.loc.8| Bool) (|N1_0| (Array Int Int)) (|.x.1077| Int) (|.x.1075| (Array Int Int)) (|.x.1073| Int) (|.x.1071| (Array Int Int)) (|.x.1067| Int) (|.x.1069| (Array Int Int)) (|.x.1068| (Array Int Int)) (|M1_28| Bool) (|.x.1079| Int) (|.x.1080| Int) (|.x.1088| Int) (|.x.1089| Int) (|.x.1090| Int) (|.x.1091| Int) (|.x.1094| Int) (|.x.1096| Int) (|.x.1098| Int) (|.x.1101| Int) (|.loc.10| Bool) (|.x.1092| Int) (|.x.1082| Int) (|.x.1093| Int) (|.x.1102| Int) (|.loc.11| Bool) (|.loc.9| Bool) (|.x.1100| Int) (|.x.1097| Int) (|.x.1086| Int) (|.x.1070| (Array Int Int)) (|.x.1095| Int) (|.x.1099| Int) (|.loc.12| Bool) (|.x.1103| Int) (|.x.1087| Int) (|.x.1104| Int) (|.x.1084| Int) (|.x.1085| Int) (|.x.1083| Int) (|.x.1078| Int) (|.x.1081| Int) (|.x.1076| Int) (|.x.1072| Int) (|.x.1074| (Array Int Int)) (|.xtv.1| (Array Int Int))) (=> (state |A_28| |B_28| |C_28| |D_28| |E_28| |F_28| |G_28| |H_28| |I_28| |J_28| |K_28| |L_28| |M_28| |N_28| |O_28| |P_28| |Q_28| |R_28| |S_28| |T_28| |U_28| |V_28| |W_28| |X_28| |Y_28| |Z_28| |A1_28| |B1_28| |C1_28| |D1_28| |E1_28| |F1_28| |G1_28| |H1_28| |I1_28| |J1_28| |K1_28| |L1_28| |N1_16| |.loc.5| |.loc.6| |.loc.7| |.loc.8| |N1_0|) (not (and N1_16 (and .loc.8 (and .loc.7 (and .loc.6 (not .loc.5)))))))))
(check-sat)
